newtestsuite/evaluation/password.out
enclave (0, 
 status := declassify(*l1 == *l2)  
 )kill();
 set(cnd)  ; 
 output status to L  